(set-logic QF_S)
(set-option :parse-transducers true)
(set-option :produce-models true)
(define-fun-rec toLower ((x String) (y String)) Bool
   (or (and (= x "") (= y ""))
       (and (not (= x "")) (not (= y ""))
           (= (char.code (str.head y))
               (ite (and (<= 65 (char.code (str.head x)))
                       (<= (char.code (str.head x)) 90))
                   (+ (char.code (str.head x)) 32)
                   (char.code (str.head x))))
           (toLower (str.tail x) (str.tail y))))
)
(declare-fun sym205 () String)
(declare-fun sym404 () String)
(declare-fun sym528 () String)
(declare-fun sym606 () String)
(declare-fun sym440 () String)
(declare-fun sym484 () String)
(declare-fun sym562 () String)
(declare-fun sym289 () String)
(declare-fun sym686 () String)
(declare-fun sym642 () String)
(declare-fun sym323 () String)
(declare-fun sym160 () String)
(declare-fun sym414 () String)
(declare-fun sym338 () String)
(declare-fun sym175 () String)
(declare-fun sym494 () String)
(declare-fun sym450 () String)
(declare-fun sym374 () String)
(declare-fun sym254 () String)
(declare-fun sym299 () String)
(declare-fun sym696 () String)
(declare-fun sym652 () String)
(declare-fun sym135 () String)
(declare-fun sym576 () String)
(declare-fun sym215 () String)
(declare-fun sym348 () String)
(declare-fun sym20 () String)
(declare-fun sym504 () String)
(declare-fun sym384 () String)
(declare-fun sym264 () String)
(declare-fun sym662 () String)
(declare-fun sym586 () String)
(declare-fun sym542 () String)
(declare-fun sym225 () String)
(declare-fun sym622 () String)
(declare-fun sym185 () String)
(declare-fun sym460 () String)
(declare-fun sym239 () String)
(declare-fun sym518 () String)
(declare-fun sym430 () String)
(declare-fun sym596 () String)
(declare-fun sym552 () String)
(declare-fun sym113 () String)
(declare-fun sym279 () String)
(declare-fun sym676 () String)
(declare-fun sym313 () String)
(declare-fun sym632 () String)
(declare-fun sym358 () String)
(declare-fun sym150 () String)
(declare-fun sym470 () String)
(declare-fun sym195 () String)
(declare-fun sym394 () String)
(declare-fun L39  () String)
(declare-fun L23  () String)
(declare-fun L35  () String)
(declare-fun L47  () String)
(declare-fun L59  () String)
(declare-fun L31  () String)
(declare-fun L43  () String)
(declare-fun L11  () String)
(declare-fun L55  () String)
(declare-fun L3  () String)
(declare-fun L51  () String)
(declare-fun L102  () String)
(declare-fun L18  () String)
(declare-fun L78  () String)
(declare-fun L14  () String)
(declare-fun L26  () String)
(declare-fun L74  () String)
(declare-fun L8  () String)
(declare-fun L86  () String)
(declare-fun L10  () String)
(declare-fun L54  () String)
(declare-fun L98  () String)
(declare-fun L22  () String)
(declare-fun L66  () String)
(declare-fun L70  () String)
(declare-fun L4  () String)
(declare-fun L82  () String)
(declare-fun L94  () String)
(declare-fun L62  () String)
(declare-fun L0  () String)
(declare-fun L90  () String)
(declare-fun L49  () String)
(declare-fun L17  () String)
(declare-fun L29  () String)
(declare-fun L45  () String)
(declare-fun L57  () String)
(declare-fun L37  () String)
(declare-fun L41  () String)
(declare-fun L85  () String)
(declare-fun L53  () String)
(declare-fun L5  () String)
(declare-fun L33  () String)
(declare-fun L1  () String)
(declare-fun L100  () String)
(declare-fun L16  () String)
(declare-fun L28  () String)
(declare-fun L12  () String)
(declare-fun L24  () String)
(declare-fun L68  () String)
(declare-fun L96  () String)
(declare-fun L20  () String)
(declare-fun L64  () String)
(declare-fun L76  () String)
(declare-fun L6  () String)
(declare-fun L88  () String)
(declare-fun L92  () String)
(declare-fun L72  () String)
(declare-fun L2  () String)
(declare-fun L84  () String)
(declare-fun L80  () String)
(assert (toLower sym205  L80 ))
(assert (toLower sym113  L84 ))
(assert (toLower sym404  L2 ))
(assert (toLower sym414  L72 ))
(assert (toLower sym542  L92 ))
(assert (toLower sym460  L88 ))
(assert (toLower sym279  L6 ))
(assert (toLower sym662  L76 ))
(assert (toLower sym239  L64 ))
(assert (toLower sym676  L20 ))
(assert (toLower sym150  L96 ))
(assert (toLower sym562  L68 ))
(assert (toLower sym494  L24 ))
(assert (toLower sym622  L12 ))
(assert (toLower sym20  L28 ))
(assert (toLower sym696  L16 ))
(assert (toLower sym504  L100 ))
(assert (toLower "name"  L1 ))
(assert (toLower sym264  L33 ))
(assert (toLower "description"  L5 ))
(assert (toLower sym470  L53 ))
(assert (toLower "database"  L85 ))
(assert (toLower sym160  L41 ))
(assert (toLower sym586  L37 ))
(assert (toLower sym254  L57 ))
(assert (toLower sym338  L45 ))
(assert (toLower sym215  L29 ))
(assert (toLower "field"  L17 ))
(assert (toLower sym528  L49 ))
(assert (toLower sym299  L90 ))
(assert (toLower sym175  L0 ))
(assert (toLower sym323  L62 ))
(assert (toLower sym195  L94 ))
(assert (toLower sym430  L82 ))
(assert (toLower sym686  L4 ))
(assert (toLower sym384  L70 ))
(assert (toLower sym606  L66 ))
(assert (toLower sym225  L22 ))
(assert (toLower sym135  L98 ))
(assert (toLower "option"  L54 ))
(assert (toLower sym596  L10 ))
(assert (toLower sym518  L86 ))
(assert (toLower sym348  L8 ))
(assert (toLower sym358  L74 ))
(assert (toLower sym185  L26 ))
(assert (toLower sym552  L14 ))
(assert (toLower sym289  L78 ))
(assert (toLower sym652  L18 ))
(assert (toLower sym374  L102 ))
(assert (toLower sym450  L51 ))
(assert (toLower "length"  L3 ))
(assert (toLower sym484  L55 ))
(assert (toLower "type"  L11 ))
(assert (toLower sym313  L43 ))
(assert (toLower sym642  L31 ))
(assert (toLower sym632  L59 ))
(assert (toLower sym394  L47 ))
(assert (toLower sym576  L35 ))
(assert (toLower "table"  L23 ))
(assert (toLower sym440  L39 ))

(assert (not (= L0 L1 )))
(assert (not (= L2 L3 )))
(assert (not (= L4 L5 )))
(assert (not (= L6 L1 )))
(assert (not (= L8 L5 )))
(assert (not (= L10 L11 )))
(assert (not (= L12 L1 )))
(assert (not (= L14 L5 )))
(assert (not (= L16 L17 )))
(assert (not (= L18 L3 )))
(assert (not (= L20 L1 )))
(assert (= L22 L23 ))
(assert (not (= L24 L5 )))
(assert (not (= L26 L5 )))
(assert (not (= L28 "sql" )))
(assert (not (= L29 L5 )))
(assert (not (= L31 L11 )))
(assert (= L33 L5 ))
(assert (not (= L35 L1 )))
(assert (not (= L37 L5 )))
(assert (not (= L39 L5 )))
(assert (= L41 L5 ))
(assert (not (= L43 L1 )))
(assert (not (= L45 L1 )))
(assert (not (= L47 L11 )))
(assert (= L49 L5 ))
(assert (not (= L51 L11 )))
(assert (= L53 L54 ))
(assert (not (= L55 L1 )))
(assert (not (= L57 L1 )))
(assert (not (= L59 L5 )))
(assert (= L28 "html" ))
(assert (= L62 L5 ))
(assert (= L64 L1 ))
(assert (= L66 L3 ))
(assert (= L68 L11 ))
(assert (not (= L70 L5 )))
(assert (= L72 L54 ))
(assert (= L74 L11 ))
(assert (= L76 L54 ))
(assert (not (= L78 L5 )))
(assert (not (= L80 L1 )))
(assert (not (= L82 L1 )))
(assert (= L84 L85 ))
(assert (not (= L86 L1 )))
(assert (not (= L88 L3 )))
(assert (= L90 L17 ))
(assert (not (= L92 L1 )))
(assert (not (= L94 L23 )))
(assert (not (= L96 L1 )))
(assert (= L98 L1 ))
(assert (= L100 L17 ))
(assert (not (= L102 L1 )))
(check-sat)
(get-model)
(exit)
